c *********************************
c * Circuit generated by BenCGen
c *
c * PriorityEncoder_32_5
c *
c * Ports with 1 gate(s): 65
c * Ports with 2 gate(s): 2
c * Ports with 3 gate(s): 1
c * Ports with 4 gate(s): 1
c * Ports with 5 gate(s): 1
c * Ports with 6 gate(s): 1
c * Ports with 7 gate(s): 1
c * Ports with 8 gate(s): 1
c * Ports with 9 gate(s): 1
c * Ports with 10 gate(s): 1
c * Ports with 11 gate(s): 1
c * Ports with 12 gate(s): 1
c * Ports with 13 gate(s): 1
c * Ports with 14 gate(s): 1
c * Ports with 15 gate(s): 1
c * Ports with 16 gate(s): 6
c * Ports with 17 gate(s): 1
c * Ports with 18 gate(s): 1
c * Ports with 19 gate(s): 1
c * Ports with 20 gate(s): 1
c * Ports with 21 gate(s): 1
c * Ports with 22 gate(s): 1
c * Ports with 23 gate(s): 1
c * Ports with 24 gate(s): 1
c * Ports with 25 gate(s): 1
c * Ports with 26 gate(s): 1
c * Ports with 27 gate(s): 1
c * Ports with 28 gate(s): 1
c * Ports with 29 gate(s): 1
c * Ports with 30 gate(s): 1
c * Ports with 31 gate(s): 1
c * Ports with 32 gate(s): 1
c * Total gates: 102
c *********************************
p cnf 134 776
1 39 0
-1 -39 0
1 -38 0
39 -38 0
-1 -39 38 0
2 40 0
-2 -40 0
3 41 0
-3 -41 0
4 42 0
-4 -42 0
5 43 0
-5 -43 0
6 44 0
-6 -44 0
7 45 0
-7 -45 0
8 46 0
-8 -46 0
9 47 0
-9 -47 0
10 48 0
-10 -48 0
11 49 0
-11 -49 0
12 50 0
-12 -50 0
13 51 0
-13 -51 0
14 52 0
-14 -52 0
15 53 0
-15 -53 0
16 54 0
-16 -54 0
17 55 0
-17 -55 0
18 56 0
-18 -56 0
19 57 0
-19 -57 0
20 58 0
-20 -58 0
21 59 0
-21 -59 0
22 60 0
-22 -60 0
23 61 0
-23 -61 0
24 62 0
-24 -62 0
25 63 0
-25 -63 0
26 64 0
-26 -64 0
27 65 0
-27 -65 0
28 66 0
-28 -66 0
29 67 0
-29 -67 0
30 68 0
-30 -68 0
31 69 0
-31 -69 0
32 70 0
-32 -70 0
1 -71 0
40 -71 0
41 -71 0
42 -71 0
43 -71 0
44 -71 0
45 -71 0
46 -71 0
47 -71 0
48 -71 0
49 -71 0
50 -71 0
51 -71 0
52 -71 0
53 -71 0
54 -71 0
55 -71 0
56 -71 0
57 -71 0
58 -71 0
59 -71 0
60 -71 0
61 -71 0
62 -71 0
63 -71 0
64 -71 0
65 -71 0
66 -71 0
67 -71 0
68 -71 0
69 -71 0
70 -71 0
-1 -40 -41 -42 -43 -44 -45 -46 -47 -48 -49 -50 -51 -52 -53 -54 -55 -56 -57 -58 -59 -60 -61 -62 -63 -64 -65 -66 -67 -68 -69 -70 71 0
2 -72 0
41 -72 0
42 -72 0
43 -72 0
44 -72 0
45 -72 0
46 -72 0
47 -72 0
48 -72 0
49 -72 0
50 -72 0
51 -72 0
52 -72 0
53 -72 0
54 -72 0
55 -72 0
56 -72 0
57 -72 0
58 -72 0
59 -72 0
60 -72 0
61 -72 0
62 -72 0
63 -72 0
64 -72 0
65 -72 0
66 -72 0
67 -72 0
68 -72 0
69 -72 0
70 -72 0
-2 -41 -42 -43 -44 -45 -46 -47 -48 -49 -50 -51 -52 -53 -54 -55 -56 -57 -58 -59 -60 -61 -62 -63 -64 -65 -66 -67 -68 -69 -70 72 0
3 -73 0
42 -73 0
43 -73 0
44 -73 0
45 -73 0
46 -73 0
47 -73 0
48 -73 0
49 -73 0
50 -73 0
51 -73 0
52 -73 0
53 -73 0
54 -73 0
55 -73 0
56 -73 0
57 -73 0
58 -73 0
59 -73 0
60 -73 0
61 -73 0
62 -73 0
63 -73 0
64 -73 0
65 -73 0
66 -73 0
67 -73 0
68 -73 0
69 -73 0
70 -73 0
-3 -42 -43 -44 -45 -46 -47 -48 -49 -50 -51 -52 -53 -54 -55 -56 -57 -58 -59 -60 -61 -62 -63 -64 -65 -66 -67 -68 -69 -70 73 0
4 -74 0
43 -74 0
44 -74 0
45 -74 0
46 -74 0
47 -74 0
48 -74 0
49 -74 0
50 -74 0
51 -74 0
52 -74 0
53 -74 0
54 -74 0
55 -74 0
56 -74 0
57 -74 0
58 -74 0
59 -74 0
60 -74 0
61 -74 0
62 -74 0
63 -74 0
64 -74 0
65 -74 0
66 -74 0
67 -74 0
68 -74 0
69 -74 0
70 -74 0
-4 -43 -44 -45 -46 -47 -48 -49 -50 -51 -52 -53 -54 -55 -56 -57 -58 -59 -60 -61 -62 -63 -64 -65 -66 -67 -68 -69 -70 74 0
5 -75 0
44 -75 0
45 -75 0
46 -75 0
47 -75 0
48 -75 0
49 -75 0
50 -75 0
51 -75 0
52 -75 0
53 -75 0
54 -75 0
55 -75 0
56 -75 0
57 -75 0
58 -75 0
59 -75 0
60 -75 0
61 -75 0
62 -75 0
63 -75 0
64 -75 0
65 -75 0
66 -75 0
67 -75 0
68 -75 0
69 -75 0
70 -75 0
-5 -44 -45 -46 -47 -48 -49 -50 -51 -52 -53 -54 -55 -56 -57 -58 -59 -60 -61 -62 -63 -64 -65 -66 -67 -68 -69 -70 75 0
6 -76 0
45 -76 0
46 -76 0
47 -76 0
48 -76 0
49 -76 0
50 -76 0
51 -76 0
52 -76 0
53 -76 0
54 -76 0
55 -76 0
56 -76 0
57 -76 0
58 -76 0
59 -76 0
60 -76 0
61 -76 0
62 -76 0
63 -76 0
64 -76 0
65 -76 0
66 -76 0
67 -76 0
68 -76 0
69 -76 0
70 -76 0
-6 -45 -46 -47 -48 -49 -50 -51 -52 -53 -54 -55 -56 -57 -58 -59 -60 -61 -62 -63 -64 -65 -66 -67 -68 -69 -70 76 0
7 -77 0
46 -77 0
47 -77 0
48 -77 0
49 -77 0
50 -77 0
51 -77 0
52 -77 0
53 -77 0
54 -77 0
55 -77 0
56 -77 0
57 -77 0
58 -77 0
59 -77 0
60 -77 0
61 -77 0
62 -77 0
63 -77 0
64 -77 0
65 -77 0
66 -77 0
67 -77 0
68 -77 0
69 -77 0
70 -77 0
-7 -46 -47 -48 -49 -50 -51 -52 -53 -54 -55 -56 -57 -58 -59 -60 -61 -62 -63 -64 -65 -66 -67 -68 -69 -70 77 0
8 -78 0
47 -78 0
48 -78 0
49 -78 0
50 -78 0
51 -78 0
52 -78 0
53 -78 0
54 -78 0
55 -78 0
56 -78 0
57 -78 0
58 -78 0
59 -78 0
60 -78 0
61 -78 0
62 -78 0
63 -78 0
64 -78 0
65 -78 0
66 -78 0
67 -78 0
68 -78 0
69 -78 0
70 -78 0
-8 -47 -48 -49 -50 -51 -52 -53 -54 -55 -56 -57 -58 -59 -60 -61 -62 -63 -64 -65 -66 -67 -68 -69 -70 78 0
9 -79 0
48 -79 0
49 -79 0
50 -79 0
51 -79 0
52 -79 0
53 -79 0
54 -79 0
55 -79 0
56 -79 0
57 -79 0
58 -79 0
59 -79 0
60 -79 0
61 -79 0
62 -79 0
63 -79 0
64 -79 0
65 -79 0
66 -79 0
67 -79 0
68 -79 0
69 -79 0
70 -79 0
-9 -48 -49 -50 -51 -52 -53 -54 -55 -56 -57 -58 -59 -60 -61 -62 -63 -64 -65 -66 -67 -68 -69 -70 79 0
10 -80 0
49 -80 0
50 -80 0
51 -80 0
52 -80 0
53 -80 0
54 -80 0
55 -80 0
56 -80 0
57 -80 0
58 -80 0
59 -80 0
60 -80 0
61 -80 0
62 -80 0
63 -80 0
64 -80 0
65 -80 0
66 -80 0
67 -80 0
68 -80 0
69 -80 0
70 -80 0
-10 -49 -50 -51 -52 -53 -54 -55 -56 -57 -58 -59 -60 -61 -62 -63 -64 -65 -66 -67 -68 -69 -70 80 0
11 -81 0
50 -81 0
51 -81 0
52 -81 0
53 -81 0
54 -81 0
55 -81 0
56 -81 0
57 -81 0
58 -81 0
59 -81 0
60 -81 0
61 -81 0
62 -81 0
63 -81 0
64 -81 0
65 -81 0
66 -81 0
67 -81 0
68 -81 0
69 -81 0
70 -81 0
-11 -50 -51 -52 -53 -54 -55 -56 -57 -58 -59 -60 -61 -62 -63 -64 -65 -66 -67 -68 -69 -70 81 0
12 -82 0
51 -82 0
52 -82 0
53 -82 0
54 -82 0
55 -82 0
56 -82 0
57 -82 0
58 -82 0
59 -82 0
60 -82 0
61 -82 0
62 -82 0
63 -82 0
64 -82 0
65 -82 0
66 -82 0
67 -82 0
68 -82 0
69 -82 0
70 -82 0
-12 -51 -52 -53 -54 -55 -56 -57 -58 -59 -60 -61 -62 -63 -64 -65 -66 -67 -68 -69 -70 82 0
13 -83 0
52 -83 0
53 -83 0
54 -83 0
55 -83 0
56 -83 0
57 -83 0
58 -83 0
59 -83 0
60 -83 0
61 -83 0
62 -83 0
63 -83 0
64 -83 0
65 -83 0
66 -83 0
67 -83 0
68 -83 0
69 -83 0
70 -83 0
-13 -52 -53 -54 -55 -56 -57 -58 -59 -60 -61 -62 -63 -64 -65 -66 -67 -68 -69 -70 83 0
14 -84 0
53 -84 0
54 -84 0
55 -84 0
56 -84 0
57 -84 0
58 -84 0
59 -84 0
60 -84 0
61 -84 0
62 -84 0
63 -84 0
64 -84 0
65 -84 0
66 -84 0
67 -84 0
68 -84 0
69 -84 0
70 -84 0
-14 -53 -54 -55 -56 -57 -58 -59 -60 -61 -62 -63 -64 -65 -66 -67 -68 -69 -70 84 0
15 -85 0
54 -85 0
55 -85 0
56 -85 0
57 -85 0
58 -85 0
59 -85 0
60 -85 0
61 -85 0
62 -85 0
63 -85 0
64 -85 0
65 -85 0
66 -85 0
67 -85 0
68 -85 0
69 -85 0
70 -85 0
-15 -54 -55 -56 -57 -58 -59 -60 -61 -62 -63 -64 -65 -66 -67 -68 -69 -70 85 0
16 -86 0
55 -86 0
56 -86 0
57 -86 0
58 -86 0
59 -86 0
60 -86 0
61 -86 0
62 -86 0
63 -86 0
64 -86 0
65 -86 0
66 -86 0
67 -86 0
68 -86 0
69 -86 0
70 -86 0
-16 -55 -56 -57 -58 -59 -60 -61 -62 -63 -64 -65 -66 -67 -68 -69 -70 86 0
17 -87 0
56 -87 0
57 -87 0
58 -87 0
59 -87 0
60 -87 0
61 -87 0
62 -87 0
63 -87 0
64 -87 0
65 -87 0
66 -87 0
67 -87 0
68 -87 0
69 -87 0
70 -87 0
-17 -56 -57 -58 -59 -60 -61 -62 -63 -64 -65 -66 -67 -68 -69 -70 87 0
18 -88 0
57 -88 0
58 -88 0
59 -88 0
60 -88 0
61 -88 0
62 -88 0
63 -88 0
64 -88 0
65 -88 0
66 -88 0
67 -88 0
68 -88 0
69 -88 0
70 -88 0
-18 -57 -58 -59 -60 -61 -62 -63 -64 -65 -66 -67 -68 -69 -70 88 0
19 -89 0
58 -89 0
59 -89 0
60 -89 0
61 -89 0
62 -89 0
63 -89 0
64 -89 0
65 -89 0
66 -89 0
67 -89 0
68 -89 0
69 -89 0
70 -89 0
-19 -58 -59 -60 -61 -62 -63 -64 -65 -66 -67 -68 -69 -70 89 0
20 -90 0
59 -90 0
60 -90 0
61 -90 0
62 -90 0
63 -90 0
64 -90 0
65 -90 0
66 -90 0
67 -90 0
68 -90 0
69 -90 0
70 -90 0
-20 -59 -60 -61 -62 -63 -64 -65 -66 -67 -68 -69 -70 90 0
21 -91 0
60 -91 0
61 -91 0
62 -91 0
63 -91 0
64 -91 0
65 -91 0
66 -91 0
67 -91 0
68 -91 0
69 -91 0
70 -91 0
-21 -60 -61 -62 -63 -64 -65 -66 -67 -68 -69 -70 91 0
22 -92 0
61 -92 0
62 -92 0
63 -92 0
64 -92 0
65 -92 0
66 -92 0
67 -92 0
68 -92 0
69 -92 0
70 -92 0
-22 -61 -62 -63 -64 -65 -66 -67 -68 -69 -70 92 0
23 -93 0
62 -93 0
63 -93 0
64 -93 0
65 -93 0
66 -93 0
67 -93 0
68 -93 0
69 -93 0
70 -93 0
-23 -62 -63 -64 -65 -66 -67 -68 -69 -70 93 0
24 -94 0
63 -94 0
64 -94 0
65 -94 0
66 -94 0
67 -94 0
68 -94 0
69 -94 0
70 -94 0
-24 -63 -64 -65 -66 -67 -68 -69 -70 94 0
25 -95 0
64 -95 0
65 -95 0
66 -95 0
67 -95 0
68 -95 0
69 -95 0
70 -95 0
-25 -64 -65 -66 -67 -68 -69 -70 95 0
26 -96 0
65 -96 0
66 -96 0
67 -96 0
68 -96 0
69 -96 0
70 -96 0
-26 -65 -66 -67 -68 -69 -70 96 0
27 -97 0
66 -97 0
67 -97 0
68 -97 0
69 -97 0
70 -97 0
-27 -66 -67 -68 -69 -70 97 0
28 -98 0
67 -98 0
68 -98 0
69 -98 0
70 -98 0
-28 -67 -68 -69 -70 98 0
29 -99 0
68 -99 0
69 -99 0
70 -99 0
-29 -68 -69 -70 99 0
30 -100 0
69 -100 0
70 -100 0
-30 -69 -70 100 0
31 -101 0
70 -101 0
-31 -70 101 0
32 -102 0
-32 102 0
71 103 0
-71 -103 0
72 104 0
-72 -104 0
73 105 0
-73 -105 0
74 106 0
-74 -106 0
75 107 0
-75 -107 0
76 108 0
-76 -108 0
77 109 0
-77 -109 0
78 110 0
-78 -110 0
79 111 0
-79 -111 0
80 112 0
-80 -112 0
81 113 0
-81 -113 0
82 114 0
-82 -114 0
83 115 0
-83 -115 0
84 116 0
-84 -116 0
85 117 0
-85 -117 0
86 118 0
-86 -118 0
87 119 0
-87 -119 0
88 120 0
-88 -120 0
89 121 0
-89 -121 0
90 122 0
-90 -122 0
91 123 0
-91 -123 0
92 124 0
-92 -124 0
93 125 0
-93 -125 0
94 126 0
-94 -126 0
95 127 0
-95 -127 0
96 128 0
-96 -128 0
97 129 0
-97 -129 0
98 130 0
-98 -130 0
99 131 0
-99 -131 0
100 132 0
-100 -132 0
101 133 0
-101 -133 0
102 134 0
-102 -134 0
-72 1 0
-74 1 0
-76 1 0
-78 1 0
-80 1 0
-82 1 0
-84 1 0
-86 1 0
-88 1 0
-90 1 0
-92 1 0
-94 1 0
-96 1 0
-98 1 0
-100 1 0
-102 1 0
72 74 76 78 80 82 84 86 88 90 92 94 96 98 100 102 -1 0
-73 2 0
-74 2 0
-77 2 0
-78 2 0
-81 2 0
-82 2 0
-85 2 0
-86 2 0
-89 2 0
-90 2 0
-93 2 0
-94 2 0
-97 2 0
-98 2 0
-101 2 0
-102 2 0
73 74 77 78 81 82 85 86 89 90 93 94 97 98 101 102 -2 0
-75 3 0
-76 3 0
-77 3 0
-78 3 0
-83 3 0
-84 3 0
-85 3 0
-86 3 0
-91 3 0
-92 3 0
-93 3 0
-94 3 0
-99 3 0
-100 3 0
-101 3 0
-102 3 0
75 76 77 78 83 84 85 86 91 92 93 94 99 100 101 102 -3 0
-79 4 0
-80 4 0
-81 4 0
-82 4 0
-83 4 0
-84 4 0
-85 4 0
-86 4 0
-95 4 0
-96 4 0
-97 4 0
-98 4 0
-99 4 0
-100 4 0
-101 4 0
-102 4 0
79 80 81 82 83 84 85 86 95 96 97 98 99 100 101 102 -4 0
-87 5 0
-88 5 0
-89 5 0
-90 5 0
-91 5 0
-92 5 0
-93 5 0
-94 5 0
-95 5 0
-96 5 0
-97 5 0
-98 5 0
-99 5 0
-100 5 0
-101 5 0
-102 5 0
87 88 89 90 91 92 93 94 95 96 97 98 99 100 101 102 -5 0
